p cnf 30 81
a 9 12 0
e 1 2 3 4 5 6 7 8 10 11 13 14 15 16 17 18 19 20 21 22 23 24 25 26 27 28 29 30 0
2 3 0
-2 3 0
-4 1 0
-4 3 0
-1 -3 4 0
5 4 0
5 1 0
-4 -1 -5 0
1 -6 -7 0
-1 6 -7 0
1 6 7 0
-1 -6 7 0
-8 2 0
-8 7 0
-2 -7 8 0
9 -8 0
9 -3 0
8 3 -9 0
-5 -9 -10 0
5 9 -10 0
-5 9 10 0
5 -9 10 0
-13 11 0
-13 -12 0
-11 12 13 0
6 -3 -14 0
-6 3 -14 0
6 3 14 0
-6 -3 14 0
-16 -15 0
-16 12 0
15 -12 16 0
17 14 0
17 16 0
-14 -16 -17 0
-2 15 -18 0
2 -15 -18 0
-2 -15 18 0
2 15 18 0
-17 -18 -19 0
17 18 -19 0
-17 18 19 0
17 -18 19 0
13 19 -20 0
-13 -19 -20 0
13 -19 20 0
-13 19 20 0
23 -22 0
23 12 0
22 -12 -23 0
-24 -21 0
-24 -23 0
21 23 24 0
20 24 -25 0
-20 -24 -25 0
20 -24 25 0
-20 24 25 0
26 -16 0
26 -12 0
16 12 -26 0
-1 -15 -27 0
1 15 -27 0
-1 15 27 0
1 -15 27 0
28 -26 0
28 27 0
26 -27 -28 0
29 25 0
29 -28 0
-25 28 -29 0
30 -10 0
30 -29 0
10 29 -30 0
12 5 30 0
20 19 -21 8 12 0
-10 -2 -16 5 -29 -1 0
-2 12 -17 -10 24 0
-5 -24 -20 0
-16 -10 12 1 -7 -30 0
-7 -12 -15 4 6 -28 -26 30 0
30 0
